(set-logic ALL)
(declare-const argv String)
(assert (not (< (str.len argv) 0)))
(assert (not (str.contains (str.substr argv 1 (- (str.len argv) 1)) "THEFUCK_ARGUMENT_PLACEHOLDER")))
(assert (not (= (str.substr argv 1 (- (str.len argv) 1)) "")))
(assert (not (< (str.len (str.at (str.substr argv 1 (- (str.len argv) 1)) 0)) 0)))
(assert (str.prefixof "-" (str.at (str.substr argv 1 (- (str.len argv) 1)) 0)))
(assert (< 0 (str.len (str.substr argv 1 (- (str.len argv) 1)))))
(assert (< 1 (str.len (str.substr argv 1 (- (str.len argv) 1)))))
(assert (< 2 (str.len (str.substr argv 1 (- (str.len argv) 1)))))
(assert (< 3 (str.len (str.substr argv 1 (- (str.len argv) 1)))))
(assert (< 4 (str.len (str.substr argv 1 (- (str.len argv) 1)))))
(assert (< 5 (str.len (str.substr argv 1 (- (str.len argv) 1)))))
(assert (< 6 (str.len (str.substr argv 1 (- (str.len argv) 1)))))
(assert (not (< 7 (str.len (str.substr argv 1 (- (str.len argv) 1))))))
(assert (not (= (str.at (str.substr argv 1 (- (str.len argv) 1)) 0) "--")))
(assert (not (= (str.at (str.substr argv 1 (- (str.len argv) 1)) 0) "")))
(assert (= (str.len (str.at (str.substr argv 1 (- (str.len argv) 1)) 0)) 1))
(assert (not (= (str.at (str.substr argv 1 (- (str.len argv) 1)) 1) "--")))
(assert (not (= (str.at (str.substr argv 1 (- (str.len argv) 1)) 1) "")))
(assert (not (= (str.at (str.substr argv 1 (- (str.len argv) 1)) 2) "--")))
(assert (not (= (str.at (str.substr argv 1 (- (str.len argv) 1)) 2) "")))
(assert (not (= (str.at (str.substr argv 1 (- (str.len argv) 1)) 3) "--")))
(assert (not (= (str.at (str.substr argv 1 (- (str.len argv) 1)) 3) "")))
(assert (not (= (str.at (str.substr argv 1 (- (str.len argv) 1)) 4) "--")))
(assert (not (= (str.at (str.substr argv 1 (- (str.len argv) 1)) 4) "")))
(assert (not (= (str.at (str.substr argv 1 (- (str.len argv) 1)) 5) "--")))
(assert (not (= (str.at (str.substr argv 1 (- (str.len argv) 1)) 5) "")))
(assert (not (= (str.at (str.substr argv 1 (- (str.len argv) 1)) 6) "--")))
(assert (not (not (= (str.at (str.substr argv 1 (- (str.len argv) 1)) 6) ""))))
(check-sat)
(get-value (argv))
